general:
  SYSTEM = fcc Ni
  ISTART = 0 ; ICHARG=2
  ENCUT  =    270
  ISMEAR =   -5  ; SIGMA = 0.2
  EDIFF  = 1E-6
spin:
  ISPIN=2
  MAGMOM = 1
