general: 
   SYSTEM = clean (100) Ni surface
   ENMAX = 270 
   ISMEAR =   -5
   ALGO= Normal 

 spin:
   ISPIN=2
   MAGMOM = 5*1

   LORBIT = 11  # lm and site decomposed DOS inside PAW spheres
